<instance format="XCSP3" type="CSP">
  <variables>
    <var id="x0"> 2 5 14 17 </var>
    <var id="x1"> 1 5 </var>
    <var id="x2"> 2 4 5 14 </var>
    <var id="x3"> 4 14 </var>
    <var id="x4"> 3 4 14 17 </var>
    <var id="x5"> 2..4 17 </var>
    <var id="x6"> 4 5 </var>
    <var id="x7"> 2 6 14 17 </var>
    <var id="x8"> 0 8 14 </var>
    <var id="x9"> 0 2 8 17 </var>
    <var id="x10"> 2 6 10 </var>
    <var id="x11"> 6 9 14 17 </var>
    <var id="x12"> 2 8 17 </var>
    <var id="x13"> 0 9 10 </var>
    <var id="x14"> 0 2 6 9 14 </var>
    <var id="x15"> 3 4 9 </var>
    <var id="x16"> 3 4 12 13 17 </var>
    <var id="x17"> 0 8 12 </var>
    <var id="x18"> 0 8 13 17 </var>
    <var id="x19"> 3 8 12 17 </var>
    <var id="x20"> 0 4 8 </var>
    <var id="x21"> 3 4 8 12 17 </var>
    <var id="x22"> 4 8 9 13 </var>
    <var id="x23"> 4 7 11 17 </var>
    <var id="x24"> 4 11 13 </var>
    <var id="x25"> 4 13 17 </var>
    <var id="x26"> 13 16 </var>
    <var id="x27"> 5..7 13 </var>
    <var id="x28"> 4 6 7 16 </var>
    <var id="x29"> 4 11 17 </var>
    <var id="x30"> 5 6 13 </var>
    <var id="x31"> 4..7 15 </var>
    <var id="x32"> 4 7 11 </var>
    <var id="x33"> 4 11 13 15 </var>
    <var id="x34"> 4 10 13 </var>
    <var id="x35"> 5..7 15 </var>
    <var id="x36"> 4 10 15 </var>
    <var id="x37"> 4 6 7 </var>
    <var id="x38"> 5 6 13 </var>
    <var id="x39"> 3 4 8 11 14 </var>
    <var id="x40"> 3 8 14 15 </var>
    <var id="x41"> 3 4 9 10 15 </var>
    <var id="x42"> 4 8 14 </var>
    <var id="x43"> 3 8 11 15 </var>
    <var id="x44"> 3 4 9 11 14 </var>
    <var id="x45"> 3 4 8 11 15 </var>
    <var id="x46"> 4 8..11 15 </var>
    <var id="x47"> 3 15 </var>
    <var id="x48"> 8 12 15 </var>
    <var id="x49"> 14..17 </var>
    <var id="x50"> 0 8 16 17 </var>
    <var id="x51"> 3 8 12 15 17 </var>
    <var id="x52"> 0 3 16 </var>
    <var id="x53"> 8 15 </var>
    <var id="x54"> 0 3 14 </var>
    <var id="x55"> 1 3..6 </var>
    <var id="x56"> 4 8 </var>
    <var id="x57"> 3 4 14 </var>
    <var id="x58"> 0 5 8 </var>
    <var id="x59"> 4..6 8 14 </var>
    <var id="x60"> 3 5 8 </var>
    <var id="x61"> 3 4 8 </var>
    <var id="x62"> 0 3 5 6 14 </var>
    <var id="x63"> 2..4 8 11 </var>
    <var id="x64"> 2 5 </var>
    <var id="x65"> 0 1 5 8 </var>
    <var id="x66"> 0 2..4 </var>
    <var id="x67"> 0 2 5 8 11 </var>
    <var id="x68"> 1..3 5 </var>
    <var id="x69"> 0 1 3 4 11 </var>
    <var id="x70"> 4 5 8 11 </var>
    <var id="x71"> 1 3 5..7 </var>
    <var id="x72"> 3 13 14 </var>
    <var id="x73"> 0 1 3 13 14 </var>
    <var id="x74"> 5 6 13 14 </var>
    <var id="x75"> 1 3 5..7 13 </var>
    <var id="x76"> 0 6 7 14 </var>
    <var id="x77"> 3 6 13 14 </var>
    <var id="x78"> 0 3 5 6 13 14 </var>
    <var id="x79"> 4 9 15 </var>
    <var id="x80"> 8 15 </var>
    <var id="x81"> 2 4 9 15 </var>
    <var id="x82"> 2 8 11 13 16 </var>
    <var id="x83"> 2 4 8 13 </var>
    <var id="x84"> 4 9 11 13 </var>
    <var id="x85"> 4 9 11 16 </var>
    <var id="x86"> 2 9 13 </var>
    <var id="x87"> 2 9 12 13 15 </var>
    <var id="x88"> 12..14 </var>
    <var id="x89"> 13..16 </var>
    <var id="x90"> 2 12..14 </var>
    <var id="x91"> 2 7 13 </var>
    <var id="x92"> 12 15 16 </var>
    <var id="x93"> 7 14 16 </var>
    <var id="x94"> 2 12 15 </var>
    <var id="x95"> 2..4 8 11 </var>
    <var id="x96"> 2 4 8 11 </var>
    <var id="x97"> 3 8 </var>
    <var id="x98"> 5 8 10 </var>
    <var id="x99"> 3 5 8 11 </var>
    <var id="x100"> 3 4 10 11 </var>
    <var id="x101"> 4 5 8 10 11 </var>
    <var id="x102"> 11 17 </var>
    <var id="x103"> 15 17 </var>
    <var id="x104"> 1 10 12 15 </var>
    <var id="x105"> 10 15 17 </var>
    <var id="x106"> 1 10 13 </var>
    <var id="x107"> 1 10 11 </var>
    <var id="x108"> 10 11 13 15 </var>
    <var id="x109"> 2 5 15 16 </var>
    <var id="x110"> 3 8 13 15 16 </var>
    <var id="x111"> 5 8 10 15 </var>
    <var id="x112"> 2 3 10 15 </var>
    <var id="x113"> 3 13 </var>
    <var id="x114"> 3 10 16 </var>
    <var id="x115"> 5 8 10 13 15 </var>
    <var id="x116"> 2 3 5 13 </var>
    <var id="x117"> 3 5 6 15 </var>
    <var id="x118"> 2 3 11 17 </var>
    <var id="x119"> 2 11 12 15 </var>
    <var id="x120"> 3 12 17 </var>
    <var id="x121"> 2 5 11 17 </var>
    <var id="x122"> 3 5 11 12 15 17 </var>
    <var id="x123"> 3 6 11 17 </var>
    <var id="x124"> 3 11 </var>
    <var id="x125"> 4 6 9 15 </var>
    <var id="x126"> 4 8 14 17 </var>
    <var id="x127"> 4 8 9 15 </var>
    <var id="x128"> 0 4 9 15 17 </var>
    <var id="x129"> 4 6 8 14 </var>
    <var id="x130"> 6 </var>
    <var id="x131"> 8 15 17 </var>
    <var id="x132"> 0 4 6 8 14 </var>
    <var id="x133"> 2 7 16 </var>
    <var id="x134"> 3 13 16 </var>
    <var id="x135"> 2..4 9 </var>
    <var id="x136"> 2 13 16 </var>
    <var id="x137"> 2 4 12 13 </var>
    <var id="x138"> 2 3 7 13 </var>
    <var id="x139"> 3 12 16 </var>
    <var id="x140"> 3 4 9 13 </var>
  </variables>
  <constraints>
    <group>
      <allDifferent> %... </allDifferent>
      <args> x0 x1 x2 x3 x4 x5 x6 </args>
      <args> x7 x8 x9 x10 x11 x12 x13 x14 </args>
      <args> x15 x16 x17 x18 x19 x20 x21 x22 </args>
      <args> x23 x24 x25 x26 x27 x28 x29 x30 </args>
      <args> x31 x32 x33 x34 x35 x36 x37 x38 </args>
      <args> x39 x40 x41 x42 x43 x44 x45 x46 </args>
      <args> x47 x48 x49 x50 x51 x52 x53 x54 </args>
      <args> x55 x56 x57 x58 x59 x60 x61 x62 </args>
      <args> x63 x64 x65 x66 x67 x68 x69 x70 </args>
      <args> x71 x72 x73 x74 x75 x76 x77 x78 </args>
      <args> x79 x80 x81 x82 x83 x84 x85 x86 </args>
      <args> x87 x88 x89 x90 x91 x92 x93 x94 </args>
      <args> x95 x96 x97 x98 x99 x100 x101 </args>
      <args> x102 x103 x104 x105 x106 x107 x108 </args>
      <args> x109 x110 x111 x112 x113 x114 x115 x116 </args>
      <args> x117 x118 x119 x120 x121 x122 x123 x124 </args>
      <args> x125 x126 x127 x128 x129 x130 x131 x132 </args>
      <args> x133 x134 x135 x136 x137 x138 x139 x140 </args>
      <args> x15 x31 x47 x55 x71 x79 x117 x125 </args>
      <args> x23 x32 x39 x63 x95 x102 x118 x126 </args>
      <args> x24 x33 x48 x56 x87 x96 x119 x127 </args>
      <args> x16 x25 x34 x57 x72 x88 x120 </args>
      <args> x0 x7 x35 x49 x64 x103 x109 x133 </args>
      <args> x8 x26 x40 x73 x89 x97 x110 x134 </args>
      <args> x1 x17 x65 x80 x98 x104 x111 </args>
      <args> x36 x41 x66 x81 x105 x112 x128 x135 </args>
      <args> x9 x18 x50 x58 x67 x82 x121 x136 </args>
      <args> x2 x42 x59 x74 x83 x90 x129 x137 </args>
      <args> x10 x27 x68 x75 x91 x106 x130 x138 </args>
      <args> x19 x43 x60 x92 x99 x122 x131 x139 </args>
      <args> x3 x20 x28 x37 x76 x93 x132 </args>
      <args> x4 x11 x44 x77 x84 x113 x123 x140 </args>
      <args> x5 x12 x21 x29 x45 x51 x61 x94 </args>
      <args> x13 x52 x69 x85 x100 x107 x114 x124 </args>
      <args> x6 x22 x46 x53 x70 x101 x108 x115 </args>
      <args> x14 x30 x38 x54 x62 x78 x86 x116 </args>
    </group>
  </constraints>
</instance>

